param n := 3;
param smallest_X := 1;
param smallest_Y := 1;
param biggest_X := 5;
param biggest_Y := 5;

param scale := 100;

set S := "S2C" "S2CPro";

param I :=
"S2C" 0.305891
"S2CPro" 0.755891;

param MC := 
"S2C" 28.45
"S2CPro" 34.31;

param RMAX :=
"S2C" 1200
"S2CPro" 3200;

param X :=
1 1
2 4
3 7;

param Y := 
1 3
2 8
3 1;